Instance0
Gap











24.66%
24.10%
13.68%
13.14%
11.52%
9.38%
9.38%
9.38%
8.28%
6.97%
6.77%
5.87%
5.15%
4.89%
1.72%
1.72%
1.46%
0.73%
0
CPXPARAM_MIP_Cuts_CPXPARAM_MIP_Cuts_LiftProj-CPXPARAM_MIP_Cuts_MIRCut-CPXPARAM_MIP_Cuts_Covers-CPXPARAM_MIP_Cuts_FlowCovers 0
Instance1
CPXPARAM_MIP_Cuts_CPXPARAM_MIP_Cuts_LiftProj-CPXPARAM_MIP_Cuts_MIRCut-CPXPARAM_MIP_Cuts_Covers-CPXPARAM_MIP_Cuts_FlowCovers 0
Instance2
CPXPARAM_MIP_Cuts_CPXPARAM_MIP_Cuts_LiftProj-CPXPARAM_MIP_Cuts_MIRCut-CPXPARAM_MIP_Cuts_Covers-CPXPARAM_MIP_Cuts_FlowCovers 0
Instance3
CPXPARAM_MIP_Cuts_CPXPARAM_MIP_Cuts_LiftProj-CPXPARAM_MIP_Cuts_MIRCut-CPXPARAM_MIP_Cuts_Covers-CPXPARAM_MIP_Cuts_FlowCovers 6
Instance4
Gap



77.40%
77.40%
CPXPARAM_MIP_Cuts_CPXPARAM_MIP_Cuts_LiftProj-CPXPARAM_MIP_Cuts_MIRCut-CPXPARAM_MIP_Cuts_Covers-CPXPARAM_MIP_Cuts_FlowCovers 2
Instance5
CPXPARAM_MIP_Cuts_CPXPARAM_MIP_Cuts_LiftProj-CPXPARAM_MIP_Cuts_MIRCut-CPXPARAM_MIP_Cuts_Covers-CPXPARAM_MIP_Cuts_FlowCovers 0
Instance6
CPXPARAM_MIP_Cuts_CPXPARAM_MIP_Cuts_LiftProj-CPXPARAM_MIP_Cuts_MIRCut-CPXPARAM_MIP_Cuts_Covers-CPXPARAM_MIP_Cuts_FlowCovers 0
Instance7
CPXPARAM_MIP_Cuts_CPXPARAM_MIP_Cuts_LiftProj-CPXPARAM_MIP_Cuts_MIRCut-CPXPARAM_MIP_Cuts_Covers-CPXPARAM_MIP_Cuts_FlowCovers 0
Instance8
Gap


0.35%
0.35%
0.35%
0
CPXPARAM_MIP_Cuts_CPXPARAM_MIP_Cuts_LiftProj-CPXPARAM_MIP_Cuts_MIRCut-CPXPARAM_MIP_Cuts_Covers-CPXPARAM_MIP_Cuts_FlowCovers 0
Instance9
CPXPARAM_MIP_Cuts_CPXPARAM_MIP_Cuts_LiftProj-CPXPARAM_MIP_Cuts_MIRCut-CPXPARAM_MIP_Cuts_Covers-CPXPARAM_MIP_Cuts_FlowCovers 0
Instance10
CPXPARAM_MIP_Cuts_CPXPARAM_MIP_Cuts_LiftProj-CPXPARAM_MIP_Cuts_MIRCut-CPXPARAM_MIP_Cuts_Covers-CPXPARAM_MIP_Cuts_FlowCovers 0
Instance11
CPXPARAM_MIP_Cuts_CPXPARAM_MIP_Cuts_LiftProj-CPXPARAM_MIP_Cuts_MIRCut-CPXPARAM_MIP_Cuts_Covers-CPXPARAM_MIP_Cuts_FlowCovers 0
Instance12
Gap

0.00%
0
CPXPARAM_MIP_Cuts_CPXPARAM_MIP_Cuts_LiftProj-CPXPARAM_MIP_Cuts_MIRCut-CPXPARAM_MIP_Cuts_Covers-CPXPARAM_MIP_Cuts_FlowCovers 0
Instance13
CPXPARAM_MIP_Cuts_CPXPARAM_MIP_Cuts_LiftProj-CPXPARAM_MIP_Cuts_MIRCut-CPXPARAM_MIP_Cuts_Covers-CPXPARAM_MIP_Cuts_FlowCovers 0
Instance14
CPXPARAM_MIP_Cuts_CPXPARAM_MIP_Cuts_LiftProj-CPXPARAM_MIP_Cuts_MIRCut-CPXPARAM_MIP_Cuts_Covers-CPXPARAM_MIP_Cuts_FlowCovers 0
Instance15
CPXPARAM_MIP_Cuts_CPXPARAM_MIP_Cuts_LiftProj-CPXPARAM_MIP_Cuts_MIRCut-CPXPARAM_MIP_Cuts_Covers-CPXPARAM_MIP_Cuts_FlowCovers 0
Instance16
Gap



0
CPXPARAM_MIP_Cuts_CPXPARAM_MIP_Cuts_LiftProj-CPXPARAM_MIP_Cuts_MIRCut-CPXPARAM_MIP_Cuts_Covers-CPXPARAM_MIP_Cuts_FlowCovers 0
Instance17
CPXPARAM_MIP_Cuts_CPXPARAM_MIP_Cuts_LiftProj-CPXPARAM_MIP_Cuts_MIRCut-CPXPARAM_MIP_Cuts_Covers-CPXPARAM_MIP_Cuts_FlowCovers 0
Instance18
CPXPARAM_MIP_Cuts_CPXPARAM_MIP_Cuts_LiftProj-CPXPARAM_MIP_Cuts_MIRCut-CPXPARAM_MIP_Cuts_Covers-CPXPARAM_MIP_Cuts_FlowCovers 1
Instance19
CPXPARAM_MIP_Cuts_CPXPARAM_MIP_Cuts_LiftProj-CPXPARAM_MIP_Cuts_MIRCut-CPXPARAM_MIP_Cuts_Covers-CPXPARAM_MIP_Cuts_FlowCovers 1
Instance20
Gap


82.48%
82.48%
81.97%
CPXPARAM_MIP_Cuts_CPXPARAM_MIP_Cuts_LiftProj-CPXPARAM_MIP_Cuts_MIRCut-CPXPARAM_MIP_Cuts_Covers-CPXPARAM_MIP_Cuts_FlowCovers 0
Instance21
CPXPARAM_MIP_Cuts_CPXPARAM_MIP_Cuts_LiftProj-CPXPARAM_MIP_Cuts_MIRCut-CPXPARAM_MIP_Cuts_Covers-CPXPARAM_MIP_Cuts_FlowCovers 1
Instance22
CPXPARAM_MIP_Cuts_CPXPARAM_MIP_Cuts_LiftProj-CPXPARAM_MIP_Cuts_MIRCut-CPXPARAM_MIP_Cuts_Covers-CPXPARAM_MIP_Cuts_FlowCovers 0
Instance23
CPXPARAM_MIP_Cuts_CPXPARAM_MIP_Cuts_LiftProj-CPXPARAM_MIP_Cuts_MIRCut-CPXPARAM_MIP_Cuts_Covers-CPXPARAM_MIP_Cuts_FlowCovers 3
Instance24
Gap
111.50%
92.96%
0.13%
0.13%
0.13%
0.13%
CPXPARAM_MIP_Cuts_CPXPARAM_MIP_Cuts_LiftProj-CPXPARAM_MIP_Cuts_MIRCut-CPXPARAM_MIP_Cuts_Covers-CPXPARAM_MIP_Cuts_FlowCovers 0
Instance25
CPXPARAM_MIP_Cuts_CPXPARAM_MIP_Cuts_LiftProj-CPXPARAM_MIP_Cuts_MIRCut-CPXPARAM_MIP_Cuts_Covers-CPXPARAM_MIP_Cuts_FlowCovers 0
Instance26
CPXPARAM_MIP_Cuts_CPXPARAM_MIP_Cuts_LiftProj-CPXPARAM_MIP_Cuts_MIRCut-CPXPARAM_MIP_Cuts_Covers-CPXPARAM_MIP_Cuts_FlowCovers 0
Instance27
CPXPARAM_MIP_Cuts_CPXPARAM_MIP_Cuts_LiftProj-CPXPARAM_MIP_Cuts_MIRCut-CPXPARAM_MIP_Cuts_Covers-CPXPARAM_MIP_Cuts_FlowCovers 0
Instance28
Gap

23.59%
23.59%
23.59%
CPXPARAM_MIP_Cuts_CPXPARAM_MIP_Cuts_LiftProj-CPXPARAM_MIP_Cuts_MIRCut-CPXPARAM_MIP_Cuts_Covers-CPXPARAM_MIP_Cuts_FlowCovers 0
Instance29
CPXPARAM_MIP_Cuts_CPXPARAM_MIP_Cuts_LiftProj-CPXPARAM_MIP_Cuts_MIRCut-CPXPARAM_MIP_Cuts_Covers-CPXPARAM_MIP_Cuts_FlowCovers 0
Instance30
CPXPARAM_MIP_Cuts_CPXPARAM_MIP_Cuts_LiftProj-CPXPARAM_MIP_Cuts_MIRCut-CPXPARAM_MIP_Cuts_Covers-CPXPARAM_MIP_Cuts_FlowCovers 0
Instance31
CPXPARAM_MIP_Cuts_CPXPARAM_MIP_Cuts_LiftProj-CPXPARAM_MIP_Cuts_MIRCut-CPXPARAM_MIP_Cuts_Covers-CPXPARAM_MIP_Cuts_FlowCovers 1
Instance32
Gap





3.07%
3.07%
3.07%
3.07%
3.04%
3.04%
3.03%
2.99%
2.97%
2.91%
2.83%
2.69%
2.56%
2.52%
2.52%
2.10%
CPXPARAM_MIP_Cuts_CPXPARAM_MIP_Cuts_LiftProj-CPXPARAM_MIP_Cuts_MIRCut-CPXPARAM_MIP_Cuts_Covers-CPXPARAM_MIP_Cuts_FlowCovers 0
Instance33
CPXPARAM_MIP_Cuts_CPXPARAM_MIP_Cuts_LiftProj-CPXPARAM_MIP_Cuts_MIRCut-CPXPARAM_MIP_Cuts_Covers-CPXPARAM_MIP_Cuts_FlowCovers 0
Instance34
CPXPARAM_MIP_Cuts_CPXPARAM_MIP_Cuts_LiftProj-CPXPARAM_MIP_Cuts_MIRCut-CPXPARAM_MIP_Cuts_Covers-CPXPARAM_MIP_Cuts_FlowCovers 0
Instance35
CPXPARAM_MIP_Cuts_CPXPARAM_MIP_Cuts_LiftProj-CPXPARAM_MIP_Cuts_MIRCut-CPXPARAM_MIP_Cuts_Covers-CPXPARAM_MIP_Cuts_FlowCovers 11
Instance36
Gap















0
CPXPARAM_MIP_Cuts_CPXPARAM_MIP_Cuts_LiftProj-CPXPARAM_MIP_Cuts_MIRCut-CPXPARAM_MIP_Cuts_Covers-CPXPARAM_MIP_Cuts_FlowCovers 1
Instance37
CPXPARAM_MIP_Cuts_CPXPARAM_MIP_Cuts_LiftProj-CPXPARAM_MIP_Cuts_MIRCut-CPXPARAM_MIP_Cuts_Covers-CPXPARAM_MIP_Cuts_FlowCovers 0
Instance38
CPXPARAM_MIP_Cuts_CPXPARAM_MIP_Cuts_LiftProj-CPXPARAM_MIP_Cuts_MIRCut-CPXPARAM_MIP_Cuts_Covers-CPXPARAM_MIP_Cuts_FlowCovers 0
Instance39
CPXPARAM_MIP_Cuts_CPXPARAM_MIP_Cuts_LiftProj-CPXPARAM_MIP_Cuts_MIRCut-CPXPARAM_MIP_Cuts_Covers-CPXPARAM_MIP_Cuts_FlowCovers 10
Instance40
Gap



0.01%
CPXPARAM_MIP_Cuts_CPXPARAM_MIP_Cuts_LiftProj-CPXPARAM_MIP_Cuts_MIRCut-CPXPARAM_MIP_Cuts_Covers-CPXPARAM_MIP_Cuts_FlowCovers 0
Instance41
CPXPARAM_MIP_Cuts_CPXPARAM_MIP_Cuts_LiftProj-CPXPARAM_MIP_Cuts_MIRCut-CPXPARAM_MIP_Cuts_Covers-CPXPARAM_MIP_Cuts_FlowCovers 0
Instance42
CPXPARAM_MIP_Cuts_CPXPARAM_MIP_Cuts_LiftProj-CPXPARAM_MIP_Cuts_MIRCut-CPXPARAM_MIP_Cuts_Covers-CPXPARAM_MIP_Cuts_FlowCovers 0
Instance43
CPXPARAM_MIP_Cuts_CPXPARAM_MIP_Cuts_LiftProj-CPXPARAM_MIP_Cuts_MIRCut-CPXPARAM_MIP_Cuts_Covers-CPXPARAM_MIP_Cuts_FlowCovers 2
Instance44
Gap

0.02%
0
CPXPARAM_MIP_Cuts_CPXPARAM_MIP_Cuts_LiftProj-CPXPARAM_MIP_Cuts_MIRCut-CPXPARAM_MIP_Cuts_Covers-CPXPARAM_MIP_Cuts_FlowCovers 0
Instance45
CPXPARAM_MIP_Cuts_CPXPARAM_MIP_Cuts_LiftProj-CPXPARAM_MIP_Cuts_MIRCut-CPXPARAM_MIP_Cuts_Covers-CPXPARAM_MIP_Cuts_FlowCovers 0
Instance46
CPXPARAM_MIP_Cuts_CPXPARAM_MIP_Cuts_LiftProj-CPXPARAM_MIP_Cuts_MIRCut-CPXPARAM_MIP_Cuts_Covers-CPXPARAM_MIP_Cuts_FlowCovers 0
Instance47
CPXPARAM_MIP_Cuts_CPXPARAM_MIP_Cuts_LiftProj-CPXPARAM_MIP_Cuts_MIRCut-CPXPARAM_MIP_Cuts_Covers-CPXPARAM_MIP_Cuts_FlowCovers 0
Instance48
Gap






22.55%
21.15%
20.98%
20.34%
20.06%
19.94%
19.86%
19.64%
19.56%
19.50%
19.17%
19.10%
18.15%
17.61%
16.89%
16.82%
16.79%
16.71%
9.16%
9.16%
9.16%
8.96%
8.93%
8.62%
8.54%
8.41%
8.20%
8.17%
8.14%
8.10%
8.06%
7.72%
7.69%
7.62%
7.62%
7.49%
7.46%
7.43%
7.37%
7.36%
7.35%
7.24%
CPXPARAM_MIP_Cuts_CPXPARAM_MIP_Cuts_LiftProj-CPXPARAM_MIP_Cuts_MIRCut-CPXPARAM_MIP_Cuts_Covers-CPXPARAM_MIP_Cuts_FlowCovers 0
Instance49
CPXPARAM_MIP_Cuts_CPXPARAM_MIP_Cuts_LiftProj-CPXPARAM_MIP_Cuts_MIRCut-CPXPARAM_MIP_Cuts_Covers-CPXPARAM_MIP_Cuts_FlowCovers 0
Instance50
CPXPARAM_MIP_Cuts_CPXPARAM_MIP_Cuts_LiftProj-CPXPARAM_MIP_Cuts_MIRCut-CPXPARAM_MIP_Cuts_Covers-CPXPARAM_MIP_Cuts_FlowCovers 0
Instance51
CPXPARAM_MIP_Cuts_CPXPARAM_MIP_Cuts_LiftProj-CPXPARAM_MIP_Cuts_MIRCut-CPXPARAM_MIP_Cuts_Covers-CPXPARAM_MIP_Cuts_FlowCovers 17
Instance52
Gap

37.35%
37.35%
37.35%
37.35%
CPXPARAM_MIP_Cuts_CPXPARAM_MIP_Cuts_LiftProj-CPXPARAM_MIP_Cuts_MIRCut-CPXPARAM_MIP_Cuts_Covers-CPXPARAM_MIP_Cuts_FlowCovers 0
Instance53
CPXPARAM_MIP_Cuts_CPXPARAM_MIP_Cuts_LiftProj-CPXPARAM_MIP_Cuts_MIRCut-CPXPARAM_MIP_Cuts_Covers-CPXPARAM_MIP_Cuts_FlowCovers 0
Instance54
CPXPARAM_MIP_Cuts_CPXPARAM_MIP_Cuts_LiftProj-CPXPARAM_MIP_Cuts_MIRCut-CPXPARAM_MIP_Cuts_Covers-CPXPARAM_MIP_Cuts_FlowCovers 1
Instance55
CPXPARAM_MIP_Cuts_CPXPARAM_MIP_Cuts_LiftProj-CPXPARAM_MIP_Cuts_MIRCut-CPXPARAM_MIP_Cuts_Covers-CPXPARAM_MIP_Cuts_FlowCovers 1
Instance56
Gap

1.86%
1.86%
1.86%
1.86%
CPXPARAM_MIP_Cuts_CPXPARAM_MIP_Cuts_LiftProj-CPXPARAM_MIP_Cuts_MIRCut-CPXPARAM_MIP_Cuts_Covers-CPXPARAM_MIP_Cuts_FlowCovers 0
Instance57
CPXPARAM_MIP_Cuts_CPXPARAM_MIP_Cuts_LiftProj-CPXPARAM_MIP_Cuts_MIRCut-CPXPARAM_MIP_Cuts_Covers-CPXPARAM_MIP_Cuts_FlowCovers 0
Instance58
CPXPARAM_MIP_Cuts_CPXPARAM_MIP_Cuts_LiftProj-CPXPARAM_MIP_Cuts_MIRCut-CPXPARAM_MIP_Cuts_Covers-CPXPARAM_MIP_Cuts_FlowCovers 0
Instance59
CPXPARAM_MIP_Cuts_CPXPARAM_MIP_Cuts_LiftProj-CPXPARAM_MIP_Cuts_MIRCut-CPXPARAM_MIP_Cuts_Covers-CPXPARAM_MIP_Cuts_FlowCovers 0
Instance60
Gap
112.51%
98.57%
3.14%
3.14%
3.14%
3.14%
CPXPARAM_MIP_Cuts_CPXPARAM_MIP_Cuts_LiftProj-CPXPARAM_MIP_Cuts_MIRCut-CPXPARAM_MIP_Cuts_Covers-CPXPARAM_MIP_Cuts_FlowCovers 0
Instance61
CPXPARAM_MIP_Cuts_CPXPARAM_MIP_Cuts_LiftProj-CPXPARAM_MIP_Cuts_MIRCut-CPXPARAM_MIP_Cuts_Covers-CPXPARAM_MIP_Cuts_FlowCovers 0
Instance62
CPXPARAM_MIP_Cuts_CPXPARAM_MIP_Cuts_LiftProj-CPXPARAM_MIP_Cuts_MIRCut-CPXPARAM_MIP_Cuts_Covers-CPXPARAM_MIP_Cuts_FlowCovers 0
Instance63
CPXPARAM_MIP_Cuts_CPXPARAM_MIP_Cuts_LiftProj-CPXPARAM_MIP_Cuts_MIRCut-CPXPARAM_MIP_Cuts_Covers-CPXPARAM_MIP_Cuts_FlowCovers 0
Instance64
Gap



4.87%
4.87%
4.87%
4.87%
4.87%
4.18%
CPXPARAM_MIP_Cuts_CPXPARAM_MIP_Cuts_LiftProj-CPXPARAM_MIP_Cuts_MIRCut-CPXPARAM_MIP_Cuts_Covers-CPXPARAM_MIP_Cuts_FlowCovers 0
Instance65
CPXPARAM_MIP_Cuts_CPXPARAM_MIP_Cuts_LiftProj-CPXPARAM_MIP_Cuts_MIRCut-CPXPARAM_MIP_Cuts_Covers-CPXPARAM_MIP_Cuts_FlowCovers 0
Instance66
CPXPARAM_MIP_Cuts_CPXPARAM_MIP_Cuts_LiftProj-CPXPARAM_MIP_Cuts_MIRCut-CPXPARAM_MIP_Cuts_Covers-CPXPARAM_MIP_Cuts_FlowCovers 0
Instance67
CPXPARAM_MIP_Cuts_CPXPARAM_MIP_Cuts_LiftProj-CPXPARAM_MIP_Cuts_MIRCut-CPXPARAM_MIP_Cuts_Covers-CPXPARAM_MIP_Cuts_FlowCovers 3
Instance68
Gap


52.86%
52.86%
52.86%
CPXPARAM_MIP_Cuts_CPXPARAM_MIP_Cuts_LiftProj-CPXPARAM_MIP_Cuts_MIRCut-CPXPARAM_MIP_Cuts_Covers-CPXPARAM_MIP_Cuts_FlowCovers 0
Instance69
CPXPARAM_MIP_Cuts_CPXPARAM_MIP_Cuts_LiftProj-CPXPARAM_MIP_Cuts_MIRCut-CPXPARAM_MIP_Cuts_Covers-CPXPARAM_MIP_Cuts_FlowCovers 0
Instance70
CPXPARAM_MIP_Cuts_CPXPARAM_MIP_Cuts_LiftProj-CPXPARAM_MIP_Cuts_MIRCut-CPXPARAM_MIP_Cuts_Covers-CPXPARAM_MIP_Cuts_FlowCovers 0
Instance71
CPXPARAM_MIP_Cuts_CPXPARAM_MIP_Cuts_LiftProj-CPXPARAM_MIP_Cuts_MIRCut-CPXPARAM_MIP_Cuts_Covers-CPXPARAM_MIP_Cuts_FlowCovers 2
Instance72
Gap
110.91%
93.14%
93.14%
12.16%
12.16%
CPXPARAM_MIP_Cuts_CPXPARAM_MIP_Cuts_LiftProj-CPXPARAM_MIP_Cuts_MIRCut-CPXPARAM_MIP_Cuts_Covers-CPXPARAM_MIP_Cuts_FlowCovers 0
Instance73
CPXPARAM_MIP_Cuts_CPXPARAM_MIP_Cuts_LiftProj-CPXPARAM_MIP_Cuts_MIRCut-CPXPARAM_MIP_Cuts_Covers-CPXPARAM_MIP_Cuts_FlowCovers 0
Instance74
CPXPARAM_MIP_Cuts_CPXPARAM_MIP_Cuts_LiftProj-CPXPARAM_MIP_Cuts_MIRCut-CPXPARAM_MIP_Cuts_Covers-CPXPARAM_MIP_Cuts_FlowCovers 0
Instance75
CPXPARAM_MIP_Cuts_CPXPARAM_MIP_Cuts_LiftProj-CPXPARAM_MIP_Cuts_MIRCut-CPXPARAM_MIP_Cuts_Covers-CPXPARAM_MIP_Cuts_FlowCovers 1
Instance76
Gap
114.31%
97.72%
0.46%
0.46%
0.46%
0.46%
CPXPARAM_MIP_Cuts_CPXPARAM_MIP_Cuts_LiftProj-CPXPARAM_MIP_Cuts_MIRCut-CPXPARAM_MIP_Cuts_Covers-CPXPARAM_MIP_Cuts_FlowCovers 0
Instance77
CPXPARAM_MIP_Cuts_CPXPARAM_MIP_Cuts_LiftProj-CPXPARAM_MIP_Cuts_MIRCut-CPXPARAM_MIP_Cuts_Covers-CPXPARAM_MIP_Cuts_FlowCovers 0
Instance78
CPXPARAM_MIP_Cuts_CPXPARAM_MIP_Cuts_LiftProj-CPXPARAM_MIP_Cuts_MIRCut-CPXPARAM_MIP_Cuts_Covers-CPXPARAM_MIP_Cuts_FlowCovers 0
Instance79
CPXPARAM_MIP_Cuts_CPXPARAM_MIP_Cuts_LiftProj-CPXPARAM_MIP_Cuts_MIRCut-CPXPARAM_MIP_Cuts_Covers-CPXPARAM_MIP_Cuts_FlowCovers 0
Instance80
Gap



0
CPXPARAM_MIP_Cuts_CPXPARAM_MIP_Cuts_LiftProj-CPXPARAM_MIP_Cuts_MIRCut-CPXPARAM_MIP_Cuts_Covers-CPXPARAM_MIP_Cuts_FlowCovers 2
Instance81
CPXPARAM_MIP_Cuts_CPXPARAM_MIP_Cuts_LiftProj-CPXPARAM_MIP_Cuts_MIRCut-CPXPARAM_MIP_Cuts_Covers-CPXPARAM_MIP_Cuts_FlowCovers 0
Instance82
CPXPARAM_MIP_Cuts_CPXPARAM_MIP_Cuts_LiftProj-CPXPARAM_MIP_Cuts_MIRCut-CPXPARAM_MIP_Cuts_Covers-CPXPARAM_MIP_Cuts_FlowCovers 0
Instance83
CPXPARAM_MIP_Cuts_CPXPARAM_MIP_Cuts_LiftProj-CPXPARAM_MIP_Cuts_MIRCut-CPXPARAM_MIP_Cuts_Covers-CPXPARAM_MIP_Cuts_FlowCovers 0
Instance84
Gap


40.71%
40.71%
40.71%
CPXPARAM_MIP_Cuts_CPXPARAM_MIP_Cuts_LiftProj-CPXPARAM_MIP_Cuts_MIRCut-CPXPARAM_MIP_Cuts_Covers-CPXPARAM_MIP_Cuts_FlowCovers 1
Instance85
CPXPARAM_MIP_Cuts_CPXPARAM_MIP_Cuts_LiftProj-CPXPARAM_MIP_Cuts_MIRCut-CPXPARAM_MIP_Cuts_Covers-CPXPARAM_MIP_Cuts_FlowCovers 0
Instance86
CPXPARAM_MIP_Cuts_CPXPARAM_MIP_Cuts_LiftProj-CPXPARAM_MIP_Cuts_MIRCut-CPXPARAM_MIP_Cuts_Covers-CPXPARAM_MIP_Cuts_FlowCovers 1
Instance87
CPXPARAM_MIP_Cuts_CPXPARAM_MIP_Cuts_LiftProj-CPXPARAM_MIP_Cuts_MIRCut-CPXPARAM_MIP_Cuts_Covers-CPXPARAM_MIP_Cuts_FlowCovers 1
Instance88
Gap

0.39%
0.39%
0.39%
0.39%
0.39%
CPXPARAM_MIP_Cuts_CPXPARAM_MIP_Cuts_LiftProj-CPXPARAM_MIP_Cuts_MIRCut-CPXPARAM_MIP_Cuts_Covers-CPXPARAM_MIP_Cuts_FlowCovers 0
Instance89
CPXPARAM_MIP_Cuts_CPXPARAM_MIP_Cuts_LiftProj-CPXPARAM_MIP_Cuts_MIRCut-CPXPARAM_MIP_Cuts_Covers-CPXPARAM_MIP_Cuts_FlowCovers 0
Instance90
CPXPARAM_MIP_Cuts_CPXPARAM_MIP_Cuts_LiftProj-CPXPARAM_MIP_Cuts_MIRCut-CPXPARAM_MIP_Cuts_Covers-CPXPARAM_MIP_Cuts_FlowCovers 0
Instance91
CPXPARAM_MIP_Cuts_CPXPARAM_MIP_Cuts_LiftProj-CPXPARAM_MIP_Cuts_MIRCut-CPXPARAM_MIP_Cuts_Covers-CPXPARAM_MIP_Cuts_FlowCovers 1
Instance92
Gap



3.15%
3.15%
3.15%
3.15%
3.15%
CPXPARAM_MIP_Cuts_CPXPARAM_MIP_Cuts_LiftProj-CPXPARAM_MIP_Cuts_MIRCut-CPXPARAM_MIP_Cuts_Covers-CPXPARAM_MIP_Cuts_FlowCovers 0
Instance93
CPXPARAM_MIP_Cuts_CPXPARAM_MIP_Cuts_LiftProj-CPXPARAM_MIP_Cuts_MIRCut-CPXPARAM_MIP_Cuts_Covers-CPXPARAM_MIP_Cuts_FlowCovers 0
Instance94
CPXPARAM_MIP_Cuts_CPXPARAM_MIP_Cuts_LiftProj-CPXPARAM_MIP_Cuts_MIRCut-CPXPARAM_MIP_Cuts_Covers-CPXPARAM_MIP_Cuts_FlowCovers 0
Instance95
CPXPARAM_MIP_Cuts_CPXPARAM_MIP_Cuts_LiftProj-CPXPARAM_MIP_Cuts_MIRCut-CPXPARAM_MIP_Cuts_Covers-CPXPARAM_MIP_Cuts_FlowCovers 2
Instance96
Gap

10.00%
10.00%
10.00%
10.00%
10.00%
10.00%
10.00%
9.90%
CPXPARAM_MIP_Cuts_CPXPARAM_MIP_Cuts_LiftProj-CPXPARAM_MIP_Cuts_MIRCut-CPXPARAM_MIP_Cuts_Covers-CPXPARAM_MIP_Cuts_FlowCovers 0
Instance97
CPXPARAM_MIP_Cuts_CPXPARAM_MIP_Cuts_LiftProj-CPXPARAM_MIP_Cuts_MIRCut-CPXPARAM_MIP_Cuts_Covers-CPXPARAM_MIP_Cuts_FlowCovers 0
Instance98
CPXPARAM_MIP_Cuts_CPXPARAM_MIP_Cuts_LiftProj-CPXPARAM_MIP_Cuts_MIRCut-CPXPARAM_MIP_Cuts_Covers-CPXPARAM_MIP_Cuts_FlowCovers 0
Instance99
CPXPARAM_MIP_Cuts_CPXPARAM_MIP_Cuts_LiftProj-CPXPARAM_MIP_Cuts_MIRCut-CPXPARAM_MIP_Cuts_Covers-CPXPARAM_MIP_Cuts_FlowCovers 2
Instance100
Gap



0
48.59%
CPXPARAM_MIP_Cuts_CPXPARAM_MIP_Cuts_LiftProj-CPXPARAM_MIP_Cuts_MIRCut-CPXPARAM_MIP_Cuts_Covers-CPXPARAM_MIP_Cuts_FlowCovers 2
Instance101
CPXPARAM_MIP_Cuts_CPXPARAM_MIP_Cuts_LiftProj-CPXPARAM_MIP_Cuts_MIRCut-CPXPARAM_MIP_Cuts_Covers-CPXPARAM_MIP_Cuts_FlowCovers 0
Instance102
CPXPARAM_MIP_Cuts_CPXPARAM_MIP_Cuts_LiftProj-CPXPARAM_MIP_Cuts_MIRCut-CPXPARAM_MIP_Cuts_Covers-CPXPARAM_MIP_Cuts_FlowCovers 0
Instance103
CPXPARAM_MIP_Cuts_CPXPARAM_MIP_Cuts_LiftProj-CPXPARAM_MIP_Cuts_MIRCut-CPXPARAM_MIP_Cuts_Covers-CPXPARAM_MIP_Cuts_FlowCovers 0
Instance104
Gap
0.00%
CPXPARAM_MIP_Cuts_CPXPARAM_MIP_Cuts_LiftProj-CPXPARAM_MIP_Cuts_MIRCut-CPXPARAM_MIP_Cuts_Covers-CPXPARAM_MIP_Cuts_FlowCovers 0
Instance105
CPXPARAM_MIP_Cuts_CPXPARAM_MIP_Cuts_LiftProj-CPXPARAM_MIP_Cuts_MIRCut-CPXPARAM_MIP_Cuts_Covers-CPXPARAM_MIP_Cuts_FlowCovers 0
Instance106
CPXPARAM_MIP_Cuts_CPXPARAM_MIP_Cuts_LiftProj-CPXPARAM_MIP_Cuts_MIRCut-CPXPARAM_MIP_Cuts_Covers-CPXPARAM_MIP_Cuts_FlowCovers 0
Instance107
CPXPARAM_MIP_Cuts_CPXPARAM_MIP_Cuts_LiftProj-CPXPARAM_MIP_Cuts_MIRCut-CPXPARAM_MIP_Cuts_Covers-CPXPARAM_MIP_Cuts_FlowCovers 0
Instance108
Gap

0.42%
0.42%
0.42%
0.42%
CPXPARAM_MIP_Cuts_CPXPARAM_MIP_Cuts_LiftProj-CPXPARAM_MIP_Cuts_MIRCut-CPXPARAM_MIP_Cuts_Covers-CPXPARAM_MIP_Cuts_FlowCovers 0
Instance109
CPXPARAM_MIP_Cuts_CPXPARAM_MIP_Cuts_LiftProj-CPXPARAM_MIP_Cuts_MIRCut-CPXPARAM_MIP_Cuts_Covers-CPXPARAM_MIP_Cuts_FlowCovers 0
Instance110
CPXPARAM_MIP_Cuts_CPXPARAM_MIP_Cuts_LiftProj-CPXPARAM_MIP_Cuts_MIRCut-CPXPARAM_MIP_Cuts_Covers-CPXPARAM_MIP_Cuts_FlowCovers 0
Instance111
CPXPARAM_MIP_Cuts_CPXPARAM_MIP_Cuts_LiftProj-CPXPARAM_MIP_Cuts_MIRCut-CPXPARAM_MIP_Cuts_Covers-CPXPARAM_MIP_Cuts_FlowCovers 0
Instance112
Gap



0
CPXPARAM_MIP_Cuts_CPXPARAM_MIP_Cuts_LiftProj-CPXPARAM_MIP_Cuts_MIRCut-CPXPARAM_MIP_Cuts_Covers-CPXPARAM_MIP_Cuts_FlowCovers 1
Instance113
CPXPARAM_MIP_Cuts_CPXPARAM_MIP_Cuts_LiftProj-CPXPARAM_MIP_Cuts_MIRCut-CPXPARAM_MIP_Cuts_Covers-CPXPARAM_MIP_Cuts_FlowCovers 0
Instance114
CPXPARAM_MIP_Cuts_CPXPARAM_MIP_Cuts_LiftProj-CPXPARAM_MIP_Cuts_MIRCut-CPXPARAM_MIP_Cuts_Covers-CPXPARAM_MIP_Cuts_FlowCovers 0
Instance115
CPXPARAM_MIP_Cuts_CPXPARAM_MIP_Cuts_LiftProj-CPXPARAM_MIP_Cuts_MIRCut-CPXPARAM_MIP_Cuts_Covers-CPXPARAM_MIP_Cuts_FlowCovers 2
Instance116
Gap
111.49%
406.57%
82.87%
82.87%
82.87%
82.87%
CPXPARAM_MIP_Cuts_CPXPARAM_MIP_Cuts_LiftProj-CPXPARAM_MIP_Cuts_MIRCut-CPXPARAM_MIP_Cuts_Covers-CPXPARAM_MIP_Cuts_FlowCovers 0
Instance117
CPXPARAM_MIP_Cuts_CPXPARAM_MIP_Cuts_LiftProj-CPXPARAM_MIP_Cuts_MIRCut-CPXPARAM_MIP_Cuts_Covers-CPXPARAM_MIP_Cuts_FlowCovers 1
Instance118
CPXPARAM_MIP_Cuts_CPXPARAM_MIP_Cuts_LiftProj-CPXPARAM_MIP_Cuts_MIRCut-CPXPARAM_MIP_Cuts_Covers-CPXPARAM_MIP_Cuts_FlowCovers 1
Instance119
CPXPARAM_MIP_Cuts_CPXPARAM_MIP_Cuts_LiftProj-CPXPARAM_MIP_Cuts_MIRCut-CPXPARAM_MIP_Cuts_Covers-CPXPARAM_MIP_Cuts_FlowCovers 3
Instance120
Gap
120.75%
227.70%
17.33%
17.33%
0.85%
0.85%
0.85%
0.85%
0.85%
0.85%
CPXPARAM_MIP_Cuts_CPXPARAM_MIP_Cuts_LiftProj-CPXPARAM_MIP_Cuts_MIRCut-CPXPARAM_MIP_Cuts_Covers-CPXPARAM_MIP_Cuts_FlowCovers 0
Instance121
CPXPARAM_MIP_Cuts_CPXPARAM_MIP_Cuts_LiftProj-CPXPARAM_MIP_Cuts_MIRCut-CPXPARAM_MIP_Cuts_Covers-CPXPARAM_MIP_Cuts_FlowCovers 0
Instance122
CPXPARAM_MIP_Cuts_CPXPARAM_MIP_Cuts_LiftProj-CPXPARAM_MIP_Cuts_MIRCut-CPXPARAM_MIP_Cuts_Covers-CPXPARAM_MIP_Cuts_FlowCovers 0
Instance123
CPXPARAM_MIP_Cuts_CPXPARAM_MIP_Cuts_LiftProj-CPXPARAM_MIP_Cuts_MIRCut-CPXPARAM_MIP_Cuts_Covers-CPXPARAM_MIP_Cuts_FlowCovers 2
Instance124
Gap

5.20%
5.20%
5.20%
5.20%
CPXPARAM_MIP_Cuts_CPXPARAM_MIP_Cuts_LiftProj-CPXPARAM_MIP_Cuts_MIRCut-CPXPARAM_MIP_Cuts_Covers-CPXPARAM_MIP_Cuts_FlowCovers 0
Instance125
CPXPARAM_MIP_Cuts_CPXPARAM_MIP_Cuts_LiftProj-CPXPARAM_MIP_Cuts_MIRCut-CPXPARAM_MIP_Cuts_Covers-CPXPARAM_MIP_Cuts_FlowCovers 0
Instance126
CPXPARAM_MIP_Cuts_CPXPARAM_MIP_Cuts_LiftProj-CPXPARAM_MIP_Cuts_MIRCut-CPXPARAM_MIP_Cuts_Covers-CPXPARAM_MIP_Cuts_FlowCovers 0
Instance127
CPXPARAM_MIP_Cuts_CPXPARAM_MIP_Cuts_LiftProj-CPXPARAM_MIP_Cuts_MIRCut-CPXPARAM_MIP_Cuts_Covers-CPXPARAM_MIP_Cuts_FlowCovers 0
Instance128
Gap



0
CPXPARAM_MIP_Cuts_CPXPARAM_MIP_Cuts_LiftProj-CPXPARAM_MIP_Cuts_MIRCut-CPXPARAM_MIP_Cuts_Covers-CPXPARAM_MIP_Cuts_FlowCovers 1
Instance129
CPXPARAM_MIP_Cuts_CPXPARAM_MIP_Cuts_LiftProj-CPXPARAM_MIP_Cuts_MIRCut-CPXPARAM_MIP_Cuts_Covers-CPXPARAM_MIP_Cuts_FlowCovers 0
Instance130
CPXPARAM_MIP_Cuts_CPXPARAM_MIP_Cuts_LiftProj-CPXPARAM_MIP_Cuts_MIRCut-CPXPARAM_MIP_Cuts_Covers-CPXPARAM_MIP_Cuts_FlowCovers 1
Instance131
CPXPARAM_MIP_Cuts_CPXPARAM_MIP_Cuts_LiftProj-CPXPARAM_MIP_Cuts_MIRCut-CPXPARAM_MIP_Cuts_Covers-CPXPARAM_MIP_Cuts_FlowCovers 1
Instance132
Gap




0
CPXPARAM_MIP_Cuts_CPXPARAM_MIP_Cuts_LiftProj-CPXPARAM_MIP_Cuts_MIRCut-CPXPARAM_MIP_Cuts_Covers-CPXPARAM_MIP_Cuts_FlowCovers 2
Instance133
CPXPARAM_MIP_Cuts_CPXPARAM_MIP_Cuts_LiftProj-CPXPARAM_MIP_Cuts_MIRCut-CPXPARAM_MIP_Cuts_Covers-CPXPARAM_MIP_Cuts_FlowCovers 0
Instance134
CPXPARAM_MIP_Cuts_CPXPARAM_MIP_Cuts_LiftProj-CPXPARAM_MIP_Cuts_MIRCut-CPXPARAM_MIP_Cuts_Covers-CPXPARAM_MIP_Cuts_FlowCovers 0
Instance135
CPXPARAM_MIP_Cuts_CPXPARAM_MIP_Cuts_LiftProj-CPXPARAM_MIP_Cuts_MIRCut-CPXPARAM_MIP_Cuts_Covers-CPXPARAM_MIP_Cuts_FlowCovers 3
Instance136
Gap



0.14%
0.14%
0.13%
0
CPXPARAM_MIP_Cuts_CPXPARAM_MIP_Cuts_LiftProj-CPXPARAM_MIP_Cuts_MIRCut-CPXPARAM_MIP_Cuts_Covers-CPXPARAM_MIP_Cuts_FlowCovers 0
Instance137
CPXPARAM_MIP_Cuts_CPXPARAM_MIP_Cuts_LiftProj-CPXPARAM_MIP_Cuts_MIRCut-CPXPARAM_MIP_Cuts_Covers-CPXPARAM_MIP_Cuts_FlowCovers 0
Instance138
CPXPARAM_MIP_Cuts_CPXPARAM_MIP_Cuts_LiftProj-CPXPARAM_MIP_Cuts_MIRCut-CPXPARAM_MIP_Cuts_Covers-CPXPARAM_MIP_Cuts_FlowCovers 0
Instance139
CPXPARAM_MIP_Cuts_CPXPARAM_MIP_Cuts_LiftProj-CPXPARAM_MIP_Cuts_MIRCut-CPXPARAM_MIP_Cuts_Covers-CPXPARAM_MIP_Cuts_FlowCovers 2
Instance140
Gap



2.41%
2.41%
2.41%
2.41%
2.10%
CPXPARAM_MIP_Cuts_CPXPARAM_MIP_Cuts_LiftProj-CPXPARAM_MIP_Cuts_MIRCut-CPXPARAM_MIP_Cuts_Covers-CPXPARAM_MIP_Cuts_FlowCovers 0
Instance141
CPXPARAM_MIP_Cuts_CPXPARAM_MIP_Cuts_LiftProj-CPXPARAM_MIP_Cuts_MIRCut-CPXPARAM_MIP_Cuts_Covers-CPXPARAM_MIP_Cuts_FlowCovers 0
Instance142
CPXPARAM_MIP_Cuts_CPXPARAM_MIP_Cuts_LiftProj-CPXPARAM_MIP_Cuts_MIRCut-CPXPARAM_MIP_Cuts_Covers-CPXPARAM_MIP_Cuts_FlowCovers 0
Instance143
CPXPARAM_MIP_Cuts_CPXPARAM_MIP_Cuts_LiftProj-CPXPARAM_MIP_Cuts_MIRCut-CPXPARAM_MIP_Cuts_Covers-CPXPARAM_MIP_Cuts_FlowCovers 2
Instance144
Gap


8.38%
8.38%
8.38%
8.38%
8.38%
8.38%
8.12%
CPXPARAM_MIP_Cuts_CPXPARAM_MIP_Cuts_LiftProj-CPXPARAM_MIP_Cuts_MIRCut-CPXPARAM_MIP_Cuts_Covers-CPXPARAM_MIP_Cuts_FlowCovers 0
Instance145
CPXPARAM_MIP_Cuts_CPXPARAM_MIP_Cuts_LiftProj-CPXPARAM_MIP_Cuts_MIRCut-CPXPARAM_MIP_Cuts_Covers-CPXPARAM_MIP_Cuts_FlowCovers 0
Instance146
CPXPARAM_MIP_Cuts_CPXPARAM_MIP_Cuts_LiftProj-CPXPARAM_MIP_Cuts_MIRCut-CPXPARAM_MIP_Cuts_Covers-CPXPARAM_MIP_Cuts_FlowCovers 0
Instance147
CPXPARAM_MIP_Cuts_CPXPARAM_MIP_Cuts_LiftProj-CPXPARAM_MIP_Cuts_MIRCut-CPXPARAM_MIP_Cuts_Covers-CPXPARAM_MIP_Cuts_FlowCovers 3
Instance148
Gap



161.00%
161.00%
CPXPARAM_MIP_Cuts_CPXPARAM_MIP_Cuts_LiftProj-CPXPARAM_MIP_Cuts_MIRCut-CPXPARAM_MIP_Cuts_Covers-CPXPARAM_MIP_Cuts_FlowCovers 0
Instance149
CPXPARAM_MIP_Cuts_CPXPARAM_MIP_Cuts_LiftProj-CPXPARAM_MIP_Cuts_MIRCut-CPXPARAM_MIP_Cuts_Covers-CPXPARAM_MIP_Cuts_FlowCovers 0
Instance150
CPXPARAM_MIP_Cuts_CPXPARAM_MIP_Cuts_LiftProj-CPXPARAM_MIP_Cuts_MIRCut-CPXPARAM_MIP_Cuts_Covers-CPXPARAM_MIP_Cuts_FlowCovers 0
Instance151
CPXPARAM_MIP_Cuts_CPXPARAM_MIP_Cuts_LiftProj-CPXPARAM_MIP_Cuts_MIRCut-CPXPARAM_MIP_Cuts_Covers-CPXPARAM_MIP_Cuts_FlowCovers 2
Instance152
Gap

0.21%
0.21%
0.21%
0.21%
CPXPARAM_MIP_Cuts_CPXPARAM_MIP_Cuts_LiftProj-CPXPARAM_MIP_Cuts_MIRCut-CPXPARAM_MIP_Cuts_Covers-CPXPARAM_MIP_Cuts_FlowCovers 0
Instance153
CPXPARAM_MIP_Cuts_CPXPARAM_MIP_Cuts_LiftProj-CPXPARAM_MIP_Cuts_MIRCut-CPXPARAM_MIP_Cuts_Covers-CPXPARAM_MIP_Cuts_FlowCovers 0
Instance154
CPXPARAM_MIP_Cuts_CPXPARAM_MIP_Cuts_LiftProj-CPXPARAM_MIP_Cuts_MIRCut-CPXPARAM_MIP_Cuts_Covers-CPXPARAM_MIP_Cuts_FlowCovers 0
Instance155
CPXPARAM_MIP_Cuts_CPXPARAM_MIP_Cuts_LiftProj-CPXPARAM_MIP_Cuts_MIRCut-CPXPARAM_MIP_Cuts_Covers-CPXPARAM_MIP_Cuts_FlowCovers 0
Instance156
Gap

0.50%
0.50%
0.50%
0
CPXPARAM_MIP_Cuts_CPXPARAM_MIP_Cuts_LiftProj-CPXPARAM_MIP_Cuts_MIRCut-CPXPARAM_MIP_Cuts_Covers-CPXPARAM_MIP_Cuts_FlowCovers 0
Instance157
CPXPARAM_MIP_Cuts_CPXPARAM_MIP_Cuts_LiftProj-CPXPARAM_MIP_Cuts_MIRCut-CPXPARAM_MIP_Cuts_Covers-CPXPARAM_MIP_Cuts_FlowCovers 0
Instance158
CPXPARAM_MIP_Cuts_CPXPARAM_MIP_Cuts_LiftProj-CPXPARAM_MIP_Cuts_MIRCut-CPXPARAM_MIP_Cuts_Covers-CPXPARAM_MIP_Cuts_FlowCovers 0
Instance159
CPXPARAM_MIP_Cuts_CPXPARAM_MIP_Cuts_LiftProj-CPXPARAM_MIP_Cuts_MIRCut-CPXPARAM_MIP_Cuts_Covers-CPXPARAM_MIP_Cuts_FlowCovers 0
